unknown
(model
; cardinality of BoundSet is 2
(declare-sort BoundSet 0)
; rep: @uc_BoundSet_0
; rep: @uc_BoundSet_1
(declare-sort UnboundSet 0)
(define-fun IsInvestedIn ((BOUND_VARIABLE_425 BoundSet)) Bool true)
(define-fun IsInSchools ((BOUND_VARIABLE_425 BoundSet)) Bool true)
(define-fun IsCut ((BOUND_VARIABLE_425 BoundSet)) Bool false)
)
